p cnf 150 210
145 -79 143 0
117 -150 -72 0
10 94 14 0
-59 -38 -65 0
144 108 17 0
-149 116 37 0
-72 -143 116 0
102 149 94 0
73 -104 57 0
15 41 -105 0
150 -40 -105 0
-9 104 146 0
12 19 27 0
-137 20 23 0
-103 -17 128 0
-69 -105 5 0
81 23 -72 0
-57 -13 -56 0
-63 5 -133 0
-46 116 -135 0
-67 -144 -32 0
65 96 -124 0
-14 49 30 0
78 -54 71 0
-23 65 119 0
133 -149 77 0
140 -72 40 0
-72 35 -30 0
-40 18 -20 0
40 -10 49 0
-68 127 60 0
-150 125 113 0
96 -95 -142 0
96 43 97 0
-111 -68 94 0
73 7 -49 0
23 105 -10 0
-109 -11 95 0
83 -77 -62 0
129 -55 -142 0
57 15 -39 0
14 46 82 0
-112 -74 -43 0
-80 -106 114 0
23 -19 -114 0
-21 -13 -148 0
-118 22 18 0
49 60 -143 0
-58 62 114 0
-104 -21 12 0
-55 47 -106 0
145 -12 -136 0
-127 -105 -49 0
54 145 -143 0
-98 -105 -102 0
147 -104 20 0
-87 -91 -28 0
-116 -29 65 0
109 89 -138 0
-120 -9 -135 0
78 -66 18 0
-6 -84 125 0
-41 -33 -68 0
-85 -84 -58 0
23 -123 101 0
-79 -91 28 0
-101 48 132 0
140 89 -88 0
-91 -23 79 0
-24 -94 -140 0
-35 -44 -144 0
-150 73 -132 0
-50 34 120 0
78 -138 -98 0
39 -139 -72 0
125 -93 -92 0
52 -136 41 0
139 -118 35 0
-10 -21 50 0
-85 43 60 0
85 18 -38 0
-16 -66 -28 0
-130 99 -17 0
-74 -143 15 0
13 -86 -120 0
-85 114 -98 0
-38 -59 -110 0
-135 -33 47 0
-4 53 -18 0
13 -24 -90 0
45 67 51 0
-107 -115 -132 0
24 -141 -121 0
118 -124 -69 0
123 -128 -61 0
-115 33 -137 0
-38 -61 43 0
-6 -103 -90 0
-147 41 -78 0
106 130 -134 0
-36 1 130 0
71 -134 75 0
-128 73 -55 0
-19 -91 -84 0
116 33 87 0
97 -131 40 0
37 124 56 0
-61 138 -75 0
-80 91 -55 0
41 -74 66 0
-58 -51 -22 0
-78 116 -76 0
-126 75 113 0
-129 106 105 0
-92 150 36 0
-52 28 -148 0
18 -90 106 0
-66 -35 -28 0
-23 5 -109 0
-117 138 24 0
-16 -61 -97 0
-53 17 38 0
-135 99 86 0
-118 -122 127 0
85 25 10 0
-124 38 -76 0
115 -34 9 0
78 128 85 0
-3 -100 -29 0
69 84 -71 0
97 123 39 0
-71 -142 -88 0
102 -25 86 0
-137 -115 116 0
-136 -78 144 0
-148 8 21 0
122 -140 95 0
-9 -16 119 0
115 31 105 0
102 -144 -29 0
-91 -93 -17 0
28 -52 43 0
-96 -64 136 0
79 -126 146 0
-47 -121 129 0
109 120 93 0
-99 -111 18 0
-97 -141 -27 0
-47 105 107 0
81 -20 -100 0
x -3 4 -6 -9 -10 11 -13 15 17 18 20 -23 27 28 34 -35 -38 41 -47 49 50 52 54 -55 57 -58 63 -65 -67 68 -74 75 -77 -80 -81 84 -85 -86 -91 92 -93 -94 95 -96 -97 -98 -99 101 102 -104 -105 -106 -108 -109 -111 -114 119 -121 -123 -124 -125 -128 130 135 136 -137 -138 139 -140 144 -147 0
x -1 -2 3 4 -6 8 11 14 16 18 -19 -20 -21 22 24 -26 27 -28 29 -30 32 -35 36 38 43 -44 -46 -47 49 50 51 52 -53 58 -59 61 65 67 68 -71 75 82 85 86 88 -89 -90 -91 -92 96 99 -100 101 105 107 110 111 113 -114 121 -122 -123 125 -127 -130 -131 132 133 136 137 -138 139 141 142 -143 145 -146 -147 148 149 0
x 1 -3 7 -10 13 -15 -16 -17 18 19 20 -21 22 25 -27 29 -30 31 -32 34 35 40 -44 -46 47 -49 50 54 56 -57 -58 -59 61 -62 -63 -64 -65 66 68 69 71 74 -75 84 -85 -89 93 94 -96 97 -99 100 -101 105 106 -109 110 111 -112 -116 123 -124 127 -129 130 -131 -132 139 141 144 -147 148 -149 150 0
x 1 3 4 6 -7 8 -9 11 16 -18 -19 20 -21 -22 24 -29 32 36 37 -38 -41 -43 49 -54 -55 -58 -59 -67 68 -69 70 -76 79 82 -84 85 -86 90 -93 -94 -97 -98 -101 105 108 -111 -113 -115 117 123 133 -134 -137 139 -142 144 146 -147 148 0
x 3 -5 8 -11 -17 19 -20 21 -22 23 -25 -26 -32 33 -34 35 -36 41 42 43 46 -47 -49 -51 53 -54 -55 -56 57 59 -61 64 65 -66 67 68 -73 -74 -75 -76 -77 79 -81 83 -84 86 88 93 95 97 -98 -99 -100 -106 107 109 110 -111 -112 113 -114 116 -118 122 -123 125 -130 -131 -132 -133 135 137 -142 144 146 148 -150 0
x -1 5 7 -11 -13 -16 -18 19 20 21 22 24 25 -27 -30 -34 -35 37 38 39 -40 42 -43 -44 -46 49 51 -56 -57 -58 -59 -60 62 63 -66 -67 68 -69 71 72 75 -76 -80 -81 -83 86 89 91 -95 97 -99 -100 -101 -102 104 -105 106 108 -109 -111 112 115 117 -120 126 128 130 -131 132 -136 -137 138 -139 140 144 147 -149 0
x 1 8 10 -11 -12 -18 -19 -20 -21 23 25 -26 -29 -30 32 -34 -37 38 -39 42 43 -44 -45 -46 -47 48 49 -51 -53 -54 -55 58 59 61 63 -64 67 71 -74 -78 -80 82 84 86 89 90 -92 -93 -94 96 98 100 -101 -102 104 105 -106 -108 -109 111 -112 113 -117 118 -120 125 -126 -129 -130 133 134 135 136 -142 144 147 -150 0
x -1 2 5 -6 -10 11 14 16 -18 -20 -21 -25 26 27 28 29 -30 33 34 -35 36 -37 40 -41 43 44 -46 -47 51 -52 53 -54 -63 65 68 -69 -71 72 -73 78 -79 83 -86 -88 90 96 -97 98 -102 112 115 -116 -118 -119 121 -122 -123 126 129 -131 -134 -138 139 140 -143 -144 145 147 148 -150 0
x -1 -2 -3 -7 8 9 -11 -12 -13 -14 -16 17 -19 -22 -23 24 29 -30 33 -35 36 -37 -41 42 44 -45 51 52 -54 -56 57 59 60 -61 -62 66 68 70 71 72 -79 -80 -83 84 -85 90 -94 -95 -97 -98 100 -103 -104 106 -107 -109 -116 117 -118 123 -124 125 -128 -129 -134 135 -140 146 -148 -150 0
x 2 3 7 10 -14 16 20 24 -26 32 33 -34 35 -39 40 41 43 -45 48 -51 52 53 -54 -57 -59 -62 -64 68 73 74 76 -79 -80 -82 -85 88 -91 -93 -94 -95 -96 -97 99 -101 -104 107 109 110 -111 112 115 116 119 126 127 -128 129 -130 131 -133 135 138 141 -142 147 -148 150 0
x 1 -3 4 -6 -7 -11 12 -13 15 -16 17 18 -19 -20 22 23 24 25 -29 -30 -31 -39 -40 -43 44 -45 48 -49 51 53 -54 55 57 -58 -60 -63 64 65 -66 68 73 -75 76 -77 79 82 -84 -86 -87 -88 -90 -92 -93 95 -96 97 -98 99 -101 -102 -103 104 -105 106 107 -111 112 -119 -121 -122 123 -124 126 128 130 131 134 -136 -137 138 -142 143 -147 148 150 0
x 4 8 -11 13 15 -17 -18 20 -22 -23 -24 25 -26 28 33 -35 -36 -37 38 39 -41 -48 49 -52 -53 -55 56 -59 60 -61 -62 63 67 70 -73 76 -77 81 -82 -83 -84 -85 86 -90 91 92 93 96 -97 98 101 -104 108 -109 110 112 -116 -117 -120 -121 122 -124 125 -126 127 -128 -131 -132 -133 -140 141 -142 -145 -146 -147 -148 -150 0
x 1 2 -7 -10 -12 13 15 19 -21 -22 -23 24 -27 28 -31 -33 37 -44 45 -50 -51 -52 -54 56 57 60 -69 72 -73 75 76 -77 -78 -80 81 -83 84 89 90 91 93 96 98 99 -100 -102 103 104 105 -107 109 110 -111 -112 -113 116 118 -120 -121 -122 123 124 -127 -128 129 -131 132 136 -137 140 143 -145 -147 149 -150 0
x 1 -2 6 7 -9 -12 15 21 -22 23 24 25 26 28 31 32 33 34 37 38 -42 -44 -46 47 48 -50 51 52 -53 55 58 -59 -60 61 -65 -66 68 -70 71 -72 73 74 -78 83 -85 -87 88 -90 -91 92 -95 97 -98 -99 100 103 -104 -105 -107 109 110 -114 -115 -117 118 -119 123 128 -130 131 -132 133 -134 -135 140 -141 -142 -144 145 -148 0
x 1 -2 -3 6 -7 8 -11 15 -17 -20 -21 22 28 30 -32 -33 34 35 -36 38 -45 47 52 -54 55 56 -60 -61 62 64 -65 68 -72 73 75 -81 -82 -83 84 -87 88 -89 90 -95 96 97 98 -100 101 -104 107 108 111 -113 -115 -116 -118 119 -121 -125 -128 129 132 133 134 136 -138 139 -140 -141 145 146 -148 0
x -2 6 -8 -9 10 -12 -13 14 16 -18 19 22 23 -24 -25 -28 -30 -32 36 37 -40 -43 -44 46 -49 50 -51 53 57 59 60 -62 65 69 70 -73 75 -78 79 81 82 86 -87 -88 -89 90 -91 95 -97 100 101 102 -103 109 -111 113 -115 117 118 -124 -127 129 -130 132 134 -137 139 140 143 -146 -147 0
x 1 2 -5 -6 -14 17 -18 -20 24 27 29 30 -33 -36 -39 40 -41 42 -44 45 46 -47 49 50 -53 -55 -56 -57 58 59 60 -67 -68 69 70 72 73 -78 79 80 -85 86 90 91 92 93 94 -96 -97 -98 -104 -108 -109 111 112 -120 123 -124 127 -129 -133 -135 138 143 145 146 -148 149 0
x -1 4 -6 -7 -8 10 -14 15 -18 21 24 -25 26 27 -28 32 34 -36 -37 41 -42 -43 -44 45 -48 -50 54 58 -59 -60 -62 -67 68 -69 70 73 74 -75 -76 77 78 79 81 82 83 -84 -87 88 -89 -90 91 92 94 96 -98 100 103 105 -109 -113 117 119 120 -122 123 124 -126 127 -129 -130 131 132 135 -136 -137 140 -142 145 -146 -148 150 0
x 3 4 -5 6 -7 9 11 -17 20 -22 -23 32 -33 -34 -37 38 -39 -40 43 44 47 -49 -50 -52 -53 56 59 63 64 65 -66 -69 -74 78 -79 -80 81 84 85 86 88 -91 -92 93 -95 96 99 -100 101 -103 -105 -108 -109 110 -113 -114 115 -116 -118 119 121 125 126 127 -130 134 135 -136 -137 140 142 -144 -146 147 148 -149 -150 0
x 4 -5 -9 -11 12 14 -16 17 -18 -20 22 24 28 -30 31 -32 33 34 -35 39 -45 -48 -51 54 60 -63 -66 -69 70 -71 72 -75 76 78 -79 -82 90 -91 -93 -94 95 98 100 104 105 106 -108 -109 -118 121 -125 -126 -127 128 -129 -130 131 136 137 -138 140 -142 144 150 0
x -2 -5 -13 -17 -18 -20 -22 -23 25 -26 -28 -31 33 36 37 -40 -42 44 -48 -49 -53 -55 -57 58 59 60 -61 63 64 66 -67 -71 -72 -74 -76 78 -80 -83 -84 85 -88 -89 90 92 -94 95 -97 98 99 101 -103 107 -108 -110 -112 114 -115 116 -121 122 126 -129 131 -132 -138 -139 -142 143 -146 149 -150 0
x 1 -5 -9 10 16 19 22 26 28 29 -31 34 -35 -36 -37 -39 42 44 46 47 -48 -49 51 53 56 -58 59 -60 -61 62 -63 64 67 70 71 75 77 78 79 -81 -83 87 88 -89 -90 95 -96 98 -99 -101 102 -108 113 114 -115 116 117 -118 -120 122 123 -127 129 131 -132 -135 137 -139 -140 -141 -142 143 -144 -146 -147 148 -149 -150 0
x -1 -4 -8 -14 15 16 -23 26 -27 -30 -31 32 36 37 -41 42 44 45 46 -51 52 -53 -54 55 56 -57 58 -61 -65 66 67 -70 74 -76 -78 -84 87 -92 -93 98 -104 -105 -110 -112 -115 -118 119 120 -123 124 -125 127 128 130 -131 -132 136 -137 139 140 -141 -142 -144 -147 148 0
x -1 -3 13 -15 16 -17 -20 -22 -23 -24 25 -28 29 -30 31 32 33 -36 37 -40 43 -44 -46 -47 49 50 -51 55 -60 -61 63 -64 66 -69 70 71 -72 -77 -79 -80 -82 -85 86 -88 -89 -90 -92 -93 -94 -95 -96 97 -101 -102 106 107 109 -111 -114 -116 -117 -118 -121 -122 -124 -127 -128 -131 -135 -136 -137 139 -146 -147 149 150 0
x -1 4 -5 6 -10 13 -16 20 21 24 -31 32 -34 -37 38 -41 -42 44 -45 48 51 -54 56 -61 -66 -67 -68 73 -74 -75 -76 -77 -81 82 89 -92 -93 95 -97 -98 -102 -104 107 -108 -109 110 112 -113 116 117 -120 121 124 -126 127 -129 130 -134 135 -138 140 142 -149 -150 0
x 1 -5 -6 7 -9 -10 -14 19 -20 -22 -23 25 33 34 36 38 -39 40 -41 42 -43 44 -47 48 -50 -51 -55 56 -57 58 -59 60 61 63 -65 66 69 70 -71 -74 75 76 77 -80 81 82 -83 84 87 -88 89 -93 99 -104 108 109 -110 -111 -114 -117 -118 119 -122 -123 -126 -127 129 -131 -134 135 136 137 -139 140 -144 146 -147 -148 0
x -2 -4 -7 8 11 -16 17 -18 20 -23 -24 26 27 31 -35 37 -38 -39 40 42 -43 44 -45 47 51 -52 -54 -55 -57 -58 59 61 -62 63 64 65 66 67 -70 71 -73 74 75 -76 -77 -79 -83 86 -87 88 -90 -91 94 -95 96 -101 102 -103 -104 107 -109 -110 -111 -113 -116 -117 -118 119 -121 -124 125 126 -129 -132 -133 136 -137 -138 -141 -142 -143 145 -146 -147 148 -149 0
x -4 -7 -14 16 18 22 -23 -24 28 -29 33 35 36 -38 -40 47 48 -49 50 52 55 -56 -57 58 -59 61 -62 63 -65 -66 -67 -68 -69 70 -71 72 73 -74 -77 79 80 -82 -83 -85 89 91 -97 -98 99 -101 -102 -103 -106 111 112 113 -116 -117 -119 124 -126 130 -132 135 136 137 -140 144 0
x -1 2 5 -6 7 8 -9 -11 13 17 19 20 -21 22 -23 25 29 30 34 -35 -36 38 -39 41 -43 -45 -46 49 50 53 -56 -57 -58 59 61 -62 -63 64 -66 67 -69 74 -76 81 83 -84 88 90 91 -95 98 -100 101 103 -108 110 112 -113 114 115 -116 120 -122 -123 -124 -126 127 -132 134 -137 -138 139 -140 149 150 0
x -1 -6 -13 -15 -16 -18 19 -20 -21 25 27 -29 -31 32 -38 39 -41 43 -44 -45 -49 -50 51 -53 54 55 56 -57 -58 -59 61 63 67 68 -69 71 -73 74 -77 78 80 81 -90 92 93 94 95 98 -104 105 -108 110 -111 -113 114 115 117 -119 -121 -123 125 -131 136 -137 -138 -140 -143 144 145 -147 -149 0
x 1 -2 5 -6 -8 -9 11 -13 -16 18 22 -23 26 -27 30 -32 37 38 43 -44 45 -51 -55 56 -57 60 -62 -64 -65 -66 67 69 -70 -71 -72 73 75 76 79 81 82 85 86 -88 -93 94 -95 -98 100 -101 102 104 -107 109 115 -118 119 120 130 -131 137 -139 146 -147 0
x -1 -2 3 -4 5 6 11 -13 15 -16 17 -18 -20 -25 27 28 -30 33 -34 -38 -40 42 43 45 46 47 -50 -52 -54 56 57 59 60 62 -63 65 -67 -70 74 75 76 81 -82 -84 -85 -87 91 -92 93 94 96 97 -101 105 106 107 108 -109 -111 -112 -114 -115 -116 -117 118 120 -121 122 -123 124 -130 131 135 -138 139 -141 -142 -144 147 -148 -149 -150 0
x 1 -2 -3 -5 6 -7 -12 13 18 19 20 -21 -23 26 -27 28 29 31 32 -33 -35 -40 -42 45 -47 50 -51 55 56 60 66 -67 -69 -70 -73 -76 77 -79 80 81 83 -85 -86 -87 -89 -90 -91 -92 94 -96 98 -100 -102 -104 -106 -107 -108 109 -110 -112 -115 116 -118 -119 -120 -122 124 126 127 -128 130 -132 133 134 -137 -139 140 141 -143 -148 150 0
x 1 2 -3 -6 -7 11 -13 15 17 18 -19 22 -24 -25 27 -28 -31 -32 -33 36 -37 -39 43 -44 45 46 -47 -49 -58 -61 65 -66 -67 70 -71 73 -77 78 -80 -81 -82 84 -88 91 92 -93 -95 -96 98 100 102 -103 -104 -105 -107 -108 110 111 -112 -114 -115 118 119 121 -123 -124 126 -128 -129 130 -132 -134 -137 141 144 147 -148 149 0
x -1 -4 -5 -6 -8 9 10 12 13 16 18 -20 -21 -22 28 29 -30 37 42 -43 -44 -47 -51 53 57 59 63 -65 -66 -72 -73 75 78 -79 -85 88 90 -92 93 -94 96 -98 -101 102 104 -106 107 109 111 112 115 119 -121 122 -123 -125 126 -127 -128 -130 -131 -135 -140 143 -147 150 0
x 1 2 -4 -8 -11 -12 17 -18 19 -22 -30 32 33 37 -44 45 -52 53 54 -59 -61 -64 65 -67 -68 -70 -73 -74 -75 -76 -77 79 80 -82 -90 -92 95 98 100 103 -115 -119 -122 -125 -126 127 -128 129 -132 133 134 136 -137 -140 141 142 143 -144 -147 -150 0
x -1 2 -3 4 -6 14 15 16 -17 18 20 -21 -22 23 27 -28 -31 33 35 -38 39 42 -43 -44 47 -48 49 50 -54 55 -56 -57 -58 59 62 -63 -65 67 -69 71 -72 -76 -77 81 82 -86 -88 -90 -91 93 -94 95 99 103 104 -107 -112 -113 114 116 -117 -118 119 -120 121 -122 124 125 -128 132 -133 -134 135 137 -143 144 146 150 0
x -1 2 -4 5 -8 -12 13 17 18 20 -21 -22 23 -24 26 -27 28 -34 35 38 -39 40 41 42 -44 46 -49 51 52 54 -55 -56 57 60 62 63 64 65 70 -72 73 75 77 78 -79 81 82 -83 88 -89 -91 -95 -97 101 -102 -107 -108 109 -110 -112 113 -115 116 -120 121 -125 129 -130 131 -139 -142 146 0
x 1 -2 3 4 6 7 -9 10 11 14 -15 17 -19 20 -23 -27 -31 32 -34 35 -37 -40 -42 -47 -49 -51 -52 55 56 57 58 -59 60 -63 64 -66 67 68 69 -71 72 -73 74 -77 78 80 -81 -82 -83 85 -89 90 -98 99 -100 -104 -105 106 107 -108 -109 111 -112 -113 115 116 -118 120 -123 126 128 129 -130 134 -135 -136 137 139 -142 -143 144 145 -146 147 148 0
x 1 4 -5 -7 -11 -13 16 17 -22 23 -24 28 -29 30 -32 33 -35 -38 -41 42 43 -44 -49 -50 51 55 -60 -63 64 -66 -68 72 74 -75 77 79 -80 -82 -83 -85 89 91 92 -94 -95 98 100 -101 105 108 -110 -112 114 -120 -121 -122 123 124 -126 -127 -128 -130 133 -135 -139 -142 143 144 -146 -148 0
x 1 -3 -6 -12 14 19 20 21 -24 -25 26 -29 30 -31 32 -33 36 39 43 -45 -46 49 -50 52 -56 -60 -61 -62 -71 73 74 75 -77 79 80 83 84 -87 -90 91 -94 96 99 -100 102 -103 -104 -105 106 110 -111 112 -114 115 -117 -118 121 -124 -127 128 -132 -134 135 -136 142 143 146 -147 0
x 7 -8 -9 13 15 16 18 21 24 25 -27 -28 31 -35 36 -37 38 -39 -40 -42 43 -45 48 49 50 -51 53 -54 -59 -60 63 -65 66 67 71 76 77 -78 79 -82 83 90 -91 93 95 99 101 102 -107 -108 112 -113 116 118 119 125 -127 -129 131 -133 -134 -138 139 -140 -141 -142 -143 145 147 -149 150 0
x 1 3 -4 6 7 8 -11 -12 -13 14 17 -22 -23 24 25 -26 27 33 39 -40 41 42 -43 -44 -45 46 -49 -52 54 55 -57 58 61 64 -65 69 71 -72 -73 74 76 77 78 -82 83 -84 85 -86 87 93 -95 98 99 -100 101 104 105 108 110 -111 112 113 -114 -115 -117 -119 121 -122 -124 125 129 -138 140 142 143 144 145 147 0
x 2 -4 -5 -9 -10 15 -17 18 -19 -20 -23 -26 28 30 31 -32 33 -35 -36 37 39 -41 -44 45 47 48 50 54 -55 -56 57 -59 -60 -63 -65 -66 -68 69 -70 73 74 75 76 81 82 84 -87 88 89 -93 94 95 97 98 -99 101 -103 -105 108 -111 114 -115 -116 119 -123 125 -126 -130 -131 132 134 136 138 -139 -141 142 -144 148 -150 0
x 3 7 -10 11 12 -13 -17 19 -25 -27 28 29 30 -31 -32 -33 -34 -36 37 38 40 42 45 -47 48 -49 50 -51 52 53 -54 56 -59 61 66 -67 68 -70 73 77 80 -81 -84 85 -87 89 -93 94 95 -96 -97 -99 100 101 -102 104 105 -106 -108 110 -111 -112 113 -114 116 118 -132 -133 138 139 140 -143 -144 147 -148 150 0
x 1 -2 -7 8 10 11 13 17 -20 -21 22 -23 24 25 -27 28 30 31 32 33 -38 -40 -41 -43 -44 45 -46 47 -51 56 58 59 61 65 -66 -68 71 -72 75 76 78 80 84 85 86 -89 92 94 95 100 101 103 -107 -110 -111 112 -116 119 121 123 124 -125 126 -127 128 130 -133 135 136 -139 -144 146 -148 -149 0
x -1 3 -5 6 7 9 -11 12 -13 14 -20 23 -24 -25 26 27 29 30 31 -33 36 37 38 -39 -40 -41 -44 45 -48 49 51 -52 -53 54 56 57 60 -62 63 -65 67 71 72 73 77 -78 -80 82 83 -85 -86 -87 -88 -90 91 -92 93 -94 -98 100 101 -103 -104 -105 108 109 -111 113 114 116 117 -118 -120 121 -123 124 -125 -126 -127 -129 131 -132 -133 -135 -137 138 -140 -141 -142 -143 145 -150 0
x -6 -11 13 -14 -15 18 -19 -23 26 -28 29 30 -32 34 -37 39 -40 -41 -43 -47 49 -50 -55 57 -58 59 61 -67 68 -69 70 71 -72 75 -79 81 -84 85 -86 87 91 94 -97 -99 -100 103 104 -105 109 110 112 -119 -120 -121 -122 123 -125 128 -134 -135 138 -139 142 143 144 -145 -147 149 -150 0
x 2 -3 5 6 -7 9 -11 13 14 -15 -17 -20 -21 -25 -31 39 -40 41 49 -50 -52 -53 54 56 -57 -58 -59 -60 61 -62 -64 -65 -67 -68 -69 -71 79 -82 84 90 91 94 -95 -96 -98 -99 -100 110 111 -112 -113 -116 117 118 -120 -123 125 128 132 -134 137 -139 140 -142 144 -145 -147 -149 150 0
x -2 4 -5 6 -7 8 -12 15 -16 -18 -20 -21 -22 -25 26 28 29 31 -33 34 36 -39 -40 -42 -44 46 47 48 50 -51 52 -53 55 -56 59 -61 64 -65 -68 70 -72 73 74 75 79 80 81 82 -85 88 89 92 95 -96 97 98 -100 -101 -102 -103 104 -109 -111 112 -113 114 117 -118 -119 120 123 -127 129 130 131 -132 -134 -136 137 138 139 140 144 -148 150 0
x -1 -2 3 -5 7 -8 9 -11 -13 14 -15 -17 18 -19 20 -21 22 -23 25 31 33 -34 40 -43 -44 -46 47 -48 -49 -52 -55 57 -58 -61 -64 67 68 -72 -73 75 76 -77 -78 -80 81 83 -84 -86 88 89 -92 -93 -94 -95 96 -97 -99 100 -101 -105 -109 -112 113 115 122 124 125 126 127 128 130 -131 133 134 138 -141 147 149 150 0
x -1 -4 -6 7 8 9 -12 -13 -15 -16 17 -18 19 -20 -21 -22 24 -26 29 30 -31 35 -37 -38 39 -40 43 45 48 -49 -50 51 -52 54 -55 59 60 62 -63 -65 66 -71 72 -76 77 80 -82 87 88 89 90 -91 93 94 95 -103 104 -106 109 -111 -112 114 -119 -120 123 -124 -127 -128 130 132 -133 -134 -135 -136 137 -139 -140 141 143 145 146 147 149 150 0
x -3 -4 -5 -6 9 -12 13 16 -17 20 -24 25 27 29 30 -31 -34 37 40 -41 -42 45 46 -47 -51 -55 -56 57 -58 -59 60 62 65 66 69 -71 -72 74 -78 -81 82 85 87 89 90 91 -97 -98 99 100 101 104 -108 109 113 116 117 118 -119 120 -121 123 -124 -126 -127 -128 129 130 131 132 -141 142 -147 149 150 0
x -1 2 3 -6 8 11 -19 20 21 -22 23 -25 29 32 33 -35 37 38 39 40 -42 -43 -44 45 -46 47 -48 49 50 -52 53 54 -57 58 -59 -62 63 64 65 -66 67 68 -70 72 -73 -80 -83 86 -87 -88 91 93 94 95 97 -100 -102 -104 -105 107 108 -110 111 -113 -114 -115 -116 -118 -120 121 127 128 129 -130 131 -132 133 -134 -135 136 -139 140 -142 143 149 -150 0
x -1 -2 -3 -4 -5 -6 7 8 -9 11 12 -13 -15 17 -18 22 -23 25 -28 29 31 33 -34 35 38 40 -48 -50 -51 52 54 59 60 62 63 66 72 -73 -74 -75 77 -78 -79 -82 -83 -84 -87 88 95 98 103 -104 106 -109 110 -111 -113 114 -116 -117 -124 125 -126 127 129 -131 -132 138 142 146 149 -150 0
x 1 3 -7 -8 -9 -12 13 -19 21 -23 26 28 31 34 38 -39 -41 45 -46 47 51 -56 59 60 -63 -66 -68 69 70 72 -74 75 76 78 -80 -87 89 -94 95 96 99 100 101 102 -103 104 -108 109 110 -112 -113 -116 120 121 123 124 125 -131 132 -133 137 139 141 -143 -147 -149 -150 0
x 2 -3 -4 -5 6 -7 8 11 -13 14 15 16 17 -19 -21 22 -24 25 -26 -27 28 -31 33 -34 36 38 42 -43 -45 48 49 52 56 -58 59 62 66 -69 -72 -75 76 -77 -79 -81 82 83 84 -86 -90 91 -96 -99 -100 -102 -105 -108 112 -114 -115 117 -119 -121 -123 129 130 132 135 -137 138 145 -147 148 150 0
x -1 -2 -5 -8 -9 -11 -12 13 14 -17 -18 20 -22 -24 -26 -28 29 31 34 35 -36 -37 -39 -44 -45 -48 49 52 55 -57 -58 61 69 71 -78 82 84 86 87 -91 92 93 -94 97 98 103 -104 -105 -106 107 109 -111 -113 -114 115 119 125 126 131 -132 133 -135 -136 137 -138 139 -140 141 144 -146 -147 0
x 3 4 5 6 8 -9 10 16 18 19 22 27 -28 -32 -33 35 -36 -38 39 40 44 45 -47 -50 -53 -55 56 -57 59 -60 61 -62 64 -65 67 68 -71 -72 75 -77 -79 80 -82 -85 86 87 -92 -93 -96 97 -98 99 -100 -102 103 -105 109 -110 114 115 -119 -121 122 124 -126 128 -131 -134 136 138 139 141 142 143 144 -149 150 0
x -1 -6 8 -9 -10 15 19 -22 -24 -27 -29 30 -31 -32 -33 -38 41 -43 44 -45 -48 -49 51 -52 -57 -58 -61 66 -67 70 73 -74 75 -76 -77 -79 80 -81 82 -84 86 87 -90 91 -92 -95 100 103 104 105 107 -110 -111 -114 -116 -121 -124 125 -127 -128 -130 -132 133 -134 -135 -136 -137 -138 -139 144 145 -147 -149 0
